CMPL model generation - running

CMPL version: 1.11.0
Authors: Thomas Schleiff, Mike Steglich
Distributed under the GPLv3 

create model instance ...
write model instance ...
CMPL model generation - finished

Solver - running


Welcome to IBM(R) ILOG(R) CPLEX(R) Interactive Optimizer 12.7.1.0
  with Simplex, Mixed Integer & Barrier Optimizers
5725-A06 5725-A29 5724-Y48 5724-Y49 5724-Y54 5724-Y55 5655-Y21
Copyright IBM Corp. 1988, 2017.  All Rights Reserved.

Type 'help' for a list of available commands.
Type 'help' followed by a command name for more
information on commands.

CPLEX> Specified objective sense: MINIMIZE
Selected objective  name:  line[1]
Selected RHS        name:  RHS
Selected bound      name:  BOUND
Problem '/tmp/cmpl.T23354.mps' read.
Read time = 0.06 sec. (10.11 ticks)
CPLEX> CPXPARAM_Read_APIEncoding                        "UTF-8"
Tried aggregator 3 times.
MIP Presolve eliminated 24118 rows and 37788 columns.
MIP Presolve modified 425 coefficients.
Aggregator did 692 substitutions.
Reduced MIP has 3112 rows, 3975 columns, and 11793 nonzeros.
Reduced MIP has 3765 binaries, 0 generals, 0 SOSs, and 0 indicators.
Presolve time = 0.06 sec. (49.90 ticks)
Found incumbent of value 329.782858 after 0.09 sec. (69.34 ticks)
Probing fixed 7 vars, tightened 0 bounds.
Probing time = 0.02 sec. (5.00 ticks)
Tried aggregator 1 time.
MIP Presolve eliminated 0 rows and 7 columns.
MIP Presolve modified 30 coefficients.
Reduced MIP has 3112 rows, 3968 columns, and 11779 nonzeros.
Reduced MIP has 3968 binaries, 0 generals, 0 SOSs, and 0 indicators.
Presolve time = 0.01 sec. (10.09 ticks)
Probing time = 0.01 sec. (2.82 ticks)
Clique table members: 6637.
MIP emphasis: balance optimality and feasibility.
MIP search method: dynamic search.
Parallel mode: none, using 1 thread.
Root relaxation solution time = 0.01 sec. (5.29 ticks)

        Nodes                                         Cuts/
   Node  Left     Objective  IInf  Best Integer    Best Bound    ItCnt     Gap

*     0+    0                          329.7829      -34.6343           110.50%
      0     0       11.6400    19      329.7829       11.6400       65   96.47%
*     0+    0                           49.2800       11.6400            76.38%
*     0+    0                           12.0743       11.6400             3.60%
      0     0        cutoff             12.0743                     65    0.00%
Elapsed time = 0.16 sec. (109.38 ticks, tree = 0.01 MB, solutions = 3)

Root node processing (before b&c):
  Real time             =    0.16 sec. (111.15 ticks)
Sequential b&c:
  Real time             =    0.00 sec. (0.00 ticks)
                          ------------
Total (root+branch&cut) =    0.16 sec. (111.15 ticks)

Solution pool: 3 solutions saved.

MIP - Integer optimal solution:  Objective =  1.2074286000e+01
Solution time =    0.16 sec.  Iterations = 65  Nodes = 0
Deterministic time = 111.28 ticks  (694.20 ticks/sec)

CPLEX> Incumbent solution written to file '/tmp/cmpl.T23354.gsol'.
CPLEX> 
CMPL: Time used for model generation: 1 seconds
CMPL: Time used for solving the model: 1 seconds


Solution written to ASCII file: results/output_generated_conf_0/2015-11-02-5/fair-nonlinear.sol

Solver - finished
